#LAMMPS input file: Calculate the modulus from autocorrelation

units           lj
atom_style      angle
special_bonds   fene

bond_style      fene

pair_style	lj/cut 1.12246
angle_style fourier/simple
echo both

read_restart &restart-file

# neighbor        0.75 bin
# neigh_modify    every 3 delay 0 check yes

bond_coeff	1 30.0 1.5 1.0 1.0
angle_coeff 	1 0.013 -1.0 1.0
pair_coeff  * * 1.0 1.0 1.12246
pair_modify     shift yes

fix             1 all nve
fix             2 all langevin 1.25 1.25 0.5 &rand-seed # zero yes

# prevent errors due to missing angle atoms
# comm_modify     mode single cutoff 3.2 vel yes

timestep 0.01 # 0.006

# pseudo-equilibration
run 1000000

# after first run, we can reduce comm req.
# comm_modify     mode single cutoff 2.4 vel no

# dump coordinates regularly to externally calculate Ree and Rgyr
dump		1 all custom 2000000 &output-folder/&output-basename.dump.out id type x y z ix iy iz # id = atom id, type = atom type, (x|y|z)su are coordinates without periodic boundary scaled by box size

# compute allBondLen all bond/local dist
# compute maxBondLen all reduce max c_allBondLen
# compute aveBondLen all reduce ave c_allBondLen

restart 100000 &output-folder/&output-basename.restart-1.out &output-folder/&output-basename.restart-2.out

# compute stresses
compute pA all pressure thermo_temp

thermo_style    custom step temp vol press c_pA[1] c_pA[2] c_pA[3] c_pA[4] c_pA[5] c_pA[6] 
thermo 200

variable nxy equal c_pA[1]-c_pA[2]
variable nxz equal c_pA[1]-c_pA[3]
variable nyz equal c_pA[2]-c_pA[3]

# higher fix nr not to use the previous one
fix 11 all ave/correlate/long 1 500000 c_pA[1] c_pA[2] c_pA[3] c_pA[4] c_pA[5] c_pA[6] v_nxy v_nxz v_nyz type auto nlen 16 ncount 2 ncorr 30 file &output-folder/&output-basename.out.correlate-withkin.txt

fix 13 all ave/time 1 5000 5000 c_pA[1] c_pA[2] c_pA[3] c_pA[4] c_pA[5] c_pA[6] v_nxy v_nxz v_nyz mode scalar ave one file &output-folder/&output-basename.out.ave-withkin.txt

run 300000001 # 3e8 sampling / equilibration / ...
