#LAMMPS input file: Calculate the modulus from autocorrelation

units           lj
atom_style      angle
special_bonds   fene

bond_style      fene

pair_style	lj/cut 1.12246
angle_style fourier/simple
echo both

read_restart &restart-file

neighbor        0.95 bin
neigh_modify    every 2 delay 0 check yes

bond_coeff	1 30.0 1.5 1.0 1.0
angle_coeff 	1 0.013 -1.0 1.0
pair_coeff  * * 1.0 1.0 1.12246
pair_modify     shift yes

fix             1 all nve
fix             2 all langevin 1.0 1.0 0.5 &rand-seed # zero yes

timestep 0.01 # 0.006

# after first run, we can reduce comm req.
comm_modify     mode single cutoff 2.5 vel no

run 1

variable tstep equal step

write_data structure/from-restart/t-${tstep}-&output-basename.structure.out
