#LAMMPS input file: Continue cross-linking polydisperse systems

units           lj
atom_style      angle
special_bonds   fene

bond_style      fene

pair_style	lj/cut 1.12246
angle_style fourier/simple
echo both

read_restart &restart-file

neighbor        0.95 bin
neigh_modify    every 2 delay 0 check yes

bond_coeff	1 30.0 1.5 1.0 1.0
angle_coeff 	1 0.013 -1.0 1.0
pair_coeff  * * 1.0 1.0 1.12246
pair_modify     shift yes

fix             1 all nve
fix             2 all langevin 1.0 1.0 0.5 394710 # zero yes

timestep 0.01

# after first run, we can reduce comm req.
comm_modify     mode single cutoff 2.5 vel no

compute allBondLen all bond/local dist
compute maxBondLen all reduce max c_allBondLen
compute aveBondLen all reduce ave c_allBondLen

restart 100000 &output-folder/&output-basename.restart-1.out &output-folder/&output-basename.restart-2.out

# compute stresses
# compute stressA all stress/atom NULL
# compute pA all reduce ave c_stressA[*6]
compute pA all pressure thermo_temp
compute pAv all pressure NULL virial

thermo 100

thermo_style    custom step temp vol press c_maxBondLen c_aveBondLen c_pA[1] c_pA[2] c_pA[3] c_pA[4] c_pA[5] c_pA[6]

comm_modify     mode single cutoff 2.75 vel no

# start cross-linking
# add bonds
fix 7 all bond/create 25 1 2 1.1 1 iparam 2 1 jparam 4 2 atype 1

# run as long as needed to reach full extent of reaction
run 5000000 # 5e6

write_data &output-folder/crosslinked/polydisperse/crosslinked_p_choice2_&output-basename.structure.out
