#LAMMPS input file: continue with cross-linking

units           lj
atom_style      angle
special_bonds   fene

bond_style      fene

pair_style	lj/cut 1.12246
angle_style fourier/simple
echo both

read_restart &restart-file

change_box      all triclinic

neighbor        0.95 bin
neigh_modify    every 2 delay 0 check yes

bond_coeff	1 30.0 1.5 1.0 1.0
angle_coeff 	1 0.013 -1.0 1.0
pair_coeff  * * 1.0 1.0 1.12246
pair_modify     shift yes

fix             1 all nve
fix             2 all langevin 1.0 1.0 0.5 394710 # zero yes

# after first run, we can reduce comm req.
comm_modify     mode single cutoff 2.5 vel no

# pseudo-equilibration
thermo 50
run 500000 # 5e5

write_data &output-folder/temporary/&output-basename.structure.out

################################################################
# reset all to re-read, this time from this temporary data file, to add the extra/... flags
clear
################################################################

units           lj
atom_style      angle
special_bonds   fene

bond_style      fene

pair_style	lj/cut 1.12246
angle_style fourier/simple
echo both

read_data &output-folder/temporary/&output-basename.structure.out extra/bond/per/atom 4 extra/special/per/atom 48 extra/angle/per/atom 8 

change_box      all triclinic

neighbor        1.0 bin
neigh_modify    every 2 delay 0 check yes

bond_coeff	1 30.0 1.5 1.0 1.0
angle_coeff 	1 0.013 -1.0 1.0
pair_coeff  * * 1.0 1.0 1.12246
pair_modify     shift yes

fix             1 all nve
fix             2 all langevin 1.0 1.0 0.5 394710 # zero yes

group xlinks type 2

# compute degree of convergence
compute nxlinks all count/type atom
variable nxlinks equal c_nxlinks[2]
compute		bondsperatom all property/atom nbonds
compute		nbonds all reduce sum c_bondsperatom
variable nbonds0 equal c_nbonds

run 1

variable	xlinkerConversion equal (c_nbonds-${nbonds0})/(4*${nxlinks})

# keep some sufficient space for the bonds etc.
comm_modify     mode single cutoff 2.75 vel no

# pseudo-equilibration
thermo 50
run 500000 # 5e5


# dump coordinates regularly to externally calculate Ree and Rgyr
dump		1 all custom 750000 &output-folder/&output-basename.dump.out id type x y z ix iy iz # id = atom id, type = atom type, (x|y|z)su are coordinates without periodic boundary scaled by box size

compute allBondLen all bond/local dist
compute maxBondLen all reduce max c_allBondLen
compute aveBondLen all reduce ave c_allBondLen

restart 100000 &output-folder/&output-basename.restart-1.out &output-folder/&output-basename.restart-2.out

# compute stresses
# compute stressA all stress/atom NULL
# compute pA all reduce ave c_stressA[*6]
compute pA all pressure thermo_temp
compute pAv all pressure NULL virial

compute allMsd0 all msd com yes average no

thermo 10


variable tstep equal step

thermo_style    custom step temp vol press c_maxBondLen c_aveBondLen c_pA[1] c_pA[2] c_pA[3] c_pA[4] c_pA[5] c_pA[6] v_xlinkerConversion

# start cross-linking
# add bonds
fix 7 all bond/create 25 1 2 1.1 1 iparam 2 1 jparam 4 2 atype 1

variable a loop 1000000 # output often in the beginning, when lots of bonds are made
label loop1
run 50
if "${xlinkerConversion}>=0.85" then "jump SELF loopexit1"
next a
jump SELF loop1
label loopexit1

write_data &output-folder/crosslinked/crosslinked_p_${xlinkerConversion}_&output-basename.structure.out

variable b loop 1000000 # output often in the beginning, when lots of bonds are made
label loop2
run 50
if "${xlinkerConversion}>=0.90" then "jump SELF loopexit2"
next b
jump SELF loop2
label loopexit2

write_data &output-folder/crosslinked/crosslinked_p_${xlinkerConversion}_&output-basename.structure.out

variable c loop 1000000 # output often in the beginning, when lots of bonds are made
label loop3
run 75
if "${xlinkerConversion}>=0.95" then "jump SELF loopexit3"
next c
jump SELF loop3
label loopexit3

write_data &output-folder/crosslinked/crosslinked_p_${xlinkerConversion}_&output-basename.structure.out

unfix 7
fix 7 all bond/create 5 1 2 1.1 1 iparam 2 1 jparam 4 2 atype 1

variable d loop 5000000 # output often in the beginning, when lots of bonds are made
label loop4
run 50
if "${xlinkerConversion}>=0.98" then "jump SELF loopexit4"
next d
jump SELF loop4
label loopexit4

write_data &output-folder/crosslinked/crosslinked_p_${xlinkerConversion}_&output-basename.structure.out
